
%FILE DATA:	Soccer Computational Problem for MiniZinc Models	%
%AUTHOR:	Jack Wall	%
%CONTACT:  	116397063@umail.ucc.ie			%
%LAST UPDATE:	01/29/2020, 10:18:00						%
%DESCRIPTION: 	32 games played with 24 games left				%

n=8; %number of teams

%Games to play
games=[|3,5|5,6|4,6|8,6|5,1|2,3|6,2|2,5|4,2|6,4|7,6|5,8|5,2|1,3|3,8|4,8|7,8|2,7|4,5|3,1|7,3|3,4|1,7|1,4|];

%Initial points
iPoints=[18,13,10,4,14,11,14,6];

%POSITION CONSTRAINTS
% [|teamID, operator, position|...]
% operators index:
%  1 for =  operator
%  2 for >  operator
%  3 for >= operator
%  4 for <  operator
%  5 for <= operator
positionConstraints=[|2,4,2|1,4,3|];